c description: Random 3-CNF over 19 variables and 81 clauses
c generator: CNFgen (0.9.2)
c copyright: (C) 2012-2022 Massimo Lauria <massimo.lauria@uniroma1.it>
c url: https://massimolauria.net/cnfgen
c command line: cnfgen --output CNF_4.28/19_bit_81_582.cnf randkcnf 3 19 81
c
p cnf 19 81
-11 16 -19 0
4 -7 -8 0
-3 -4 -12 0
-5 -13 -15 0
-2 -5 -13 0
-10 -13 -18 0
-6 17 -19 0
-6 -9 17 0
-7 8 14 0
3 -9 -17 0
-12 13 19 0
5 9 -11 0
-2 -5 -15 0
-4 7 10 0
9 10 18 0
1 -7 -8 0
8 -13 19 0
2 15 -18 0
-8 9 10 0
4 -9 -17 0
-10 -11 17 0
-5 13 16 0
-11 17 18 0
-4 12 14 0
-1 2 3 0
1 12 13 0
4 -10 16 0
4 14 18 0
5 -13 15 0
-5 17 19 0
-2 5 -17 0
-1 -8 -13 0
7 -14 18 0
-13 -16 -17 0
-2 -13 -16 0
3 -4 -11 0
-6 -11 15 0
-4 -5 12 0
4 10 -18 0
1 8 -15 0
4 5 13 0
6 10 -17 0
-3 13 17 0
-2 -3 -6 0
-1 -7 16 0
-2 13 -18 0
-1 -7 19 0
-3 -8 -16 0
6 15 19 0
3 -13 19 0
-2 -7 9 0
-2 18 -19 0
-3 13 -14 0
12 -14 16 0
-5 6 7 0
3 -4 -7 0
-2 6 8 0
-1 3 8 0
-13 16 19 0
-1 2 13 0
13 -16 -18 0
-14 17 -18 0
1 -12 -18 0
-14 -17 -18 0
-7 12 13 0
5 6 -15 0
4 -15 -19 0
2 14 -17 0
-4 8 -14 0
-1 7 -11 0
-1 -6 12 0
7 -12 -18 0
5 6 15 0
13 14 -15 0
-6 8 14 0
-5 7 10 0
-5 -6 19 0
4 -16 -17 0
1 -7 19 0
6 -11 -16 0
1 -10 18 0
